33D32945 STP File, STP Format Version 1.0

SECTION Comments
Name "edge_n10_d2_s44"
Problem "Euclidean Steiner Tree Problem"
Remark "Generated with STPGenerator. 2 dimensions."
END

SECTION Graph
Nodes 10
END

SECTION Coordinates
DD 0 0.7497371406 0.7497371406
DD 1 0.6546126439 0.6546126439
DD 2 0.7923043043 0.7923043043
DD 3 0.0619196091 0.0619196091
DD 4 0.0727788904 0.0727788904
DD 5 0.1874291036 0.1874291036
DD 6 0.8574096602 0.8574096602
DD 7 0.9521014504 0.9521014504
DD 8 0.4074837125 0.4074837125
DD 9 0.1925271313 0.1925271313
END
